n=7; % Tamaño de matriz
            k=4; % Nuevas localizaciones
            v=3; % Localizaciones establecidas

            x_coordinate = [3, 5, 7];
            y_coordinate = [3, 4, 6];

            P = array2d(0..n-1, 0..n-1, [
                10, 10, 10, 10, 10, 10, 10,
    10, 15, 15, 15, 15, 10, 10,
    10, 15, 20, 20, 15, 10, 10,
    10, 15, 20, 25, 20, 15, 10,
    10, 15, 15, 20, 20, 15, 10,
    10, 10, 10, 15, 15, 10, 10,
    10, 10, 10, 10, 10, 10, 10

            ]);

            E = array2d(0..n-1, 0..n-1, [
                10, 10, 10, 10, 10, 10, 10,
    15, 15, 15, 15, 15, 15, 15,
    15, 20, 20, 20, 20, 15, 15,
    15, 20, 25, 25, 20, 20, 15,
    15, 20, 25, 30, 25, 20, 15,
    15, 20, 20, 25, 25, 20, 15,
    15, 15, 20, 20, 20, 15, 15
            ]);